NAME: tsp5_1
COMMENT: 5-tsp problem (Padberg/Rinaldi)
TYPE: TSP
DIMENSION: 5
EDGE_WEIGHT_TYPE : EUC_2D
NODE_COORD_SECTION
1.00 13.50 8.70
2.00 28.97 1.45
3.00 26.01 35.16
4.00 36.87 9.47
5.00 19.01 3.12
